35	3
5	7	8	
0	0	0	0	33	2	3	4	5	6	7	8	9	10	11	12	13	14	15	16	17	18	19	20	21	22	23	24	25	26	27	28	29	30	31	32	33	34	
208	3	2	3	1	26	
333	1	2	3	1	35	
4	5	1	3	1	35	
213	4	1	2	1	24	
104	1	1	1	1	15	
3	1	1	1	1	23	
1	1	1	3	1	29	
283	2	1	2	1	35	
261	4	1	1	1	35	
113	2	1	3	1	35	
2	1	1	1	1	35	
250	2	2	2	1	35	
288	4	2	1	1	35	
6	5	1	3	1	35	
1	3	2	1	1	35	
153	2	1	1	1	35	
235	3	2	2	1	22	
5	3	2	3	1	35	
208	3	2	3	1	35	
6	2	1	1	1	22	
150	3	1	3	1	24	
3	3	1	2	1	35	
3	3	1	2	1	35	
115	2	2	2	1	30	
2	3	1	3	1	35	
3	2	1	1	1	35	
5	2	1	3	1	35	
173	1	1	2	1	35	
153	1	1	2	1	33	
3	5	2	1	1	35	
4	2	1	3	1	35	
2	2	2	1	1	35	
1	5	2	3	1	35	
0	0	0	0	0	